
Gurobi 9.5.1 (linux64) logging started Sun Jun 19 15:28:05 2022

Set parameter LogFile to value "../results/logs/log_Gowalla_edges_3_250_2022_06_19_13_09.log"
Gurobi Optimizer version 9.5.1 build v9.5.1rc2 (linux64)
Thread count: 8 physical cores, 8 logical processors, using up to 8 threads
Optimize a model with 82363 rows, 393182 columns and 376935 nonzeros
Model fingerprint: 0xdd08d0c4
Variable types: 0 continuous, 393182 integer (393182 binary)
Coefficient statistics:
  Matrix range     [1e+00, 3e+00]
  Objective range  [1e+00, 1e+00]
  Bounds range     [1e+00, 1e+00]
  RHS range        [1e+00, 2e+02]
Found heuristic solution: objective 106417.00000
Presolve removed 69598 rows and 378497 columns
Presolve time: 0.54s
Presolved: 12765 rows, 14685 columns, 43208 nonzeros
Extracted 5621 lazy constraints
Found heuristic solution: objective 106701.00000
Variable types: 0 continuous, 14685 integer (14121 binary)

Root relaxation: objective 1.105680e+05, 2503 iterations, 0.02 seconds (0.03 work units)

    Nodes    |    Current Node    |     Objective Bounds      |     Work
 Expl Unexpl |  Obj  Depth IntInf | Incumbent    BestBd   Gap | It/Node Time

     0     0 110567.983    0  866 106701.000 110567.983  3.62%     -    0s
     0     0 107686.885    0  666 106701.000 107686.885  0.92%     -    1s
H    0     0                    107214.00000 107686.885  0.44%     -    1s
     0     0 107453.307    0  638 107214.000 107453.307  0.22%     -    1s
H    0     0                    107236.00000 107453.307  0.20%     -    3s
H    0     0                    107251.00000 107453.307  0.19%     -    3s
H    0     0                    107253.00000 107453.307  0.19%     -    3s
H    0     0                    107254.00000 107453.307  0.19%     -    3s
H    0     0                    107255.00000 107453.307  0.18%     -    3s
H    0     0                    107256.00000 107453.307  0.18%     -    3s
H    0     0                    107258.00000 107453.307  0.18%     -    3s
H    0     0                    107259.00000 107453.307  0.18%     -    3s
H    0     0                    107262.00000 107453.307  0.18%     -    3s
H    0     0                    107287.00000 107453.307  0.16%     -    4s
H    0     0                    107288.00000 107453.307  0.15%     -    4s
H    0     0                    107292.00000 107453.307  0.15%     -    4s
H    0     0                    107297.00000 107453.307  0.15%     -    4s
H    0     0                    107299.00000 107453.307  0.14%     -    4s
     0     0 107309.517    0  112 107299.000 107309.517  0.01%     -    4s
     0     0 107308.217    0   82 107299.000 107308.217  0.01%     -    4s
     0     0 107302.000    0   21 107299.000 107302.000  0.00%     -    4s
     0     0 107300.433    0   24 107299.000 107300.433  0.00%     -    4s
     0     0     cutoff    0      107299.000 107299.000  0.00%     -    4s

Cutting planes:
  Gomory: 186
  Cover: 26
  Implied bound: 224
  Clique: 1
  MIR: 517
  StrongCG: 9
  GUB cover: 374
  Zero half: 68
  Mod-K: 1
  RLT: 20
  Relax-and-lift: 5
  Lazy constraints: 3190

Explored 1 nodes (8311 simplex iterations) in 4.65 seconds (3.31 work units)
Thread count was 8 (of 8 available processors)

Solution count 10: 107299 107297 107292 ... 107255

Optimal solution found (tolerance 0.00e+00)
Best objective 1.072990000000e+05, best bound 1.072990000000e+05, gap 0.0000%
